Gurobi 12.0.1:   lim:time = 14400
  mip:bestbound = 1
Set parameter LogToConsole to value 1
  tech:outlev = 1
Set parameter Cuts to value 3
  cut:cuts = 3
Set parameter Presolve to value 2
  pre:solve = 2
Set parameter MIPFocus to value 2
  mip:focus = 2
Set parameter Symmetry to value 2
  mip:symmetry = 2
Set parameter InfUnbdInfo to value 1
Gurobi Optimizer version 12.0.1 build v12.0.1rc0 (win64 - Windows 11.0 (26100.2))

CPU model: Intel(R) Core(TM) i7-10700 CPU @ 2.90GHz, instruction set [SSE2|AVX|AVX2]
Thread count: 8 physical cores, 16 logical processors, using up to 16 threads

Non-default parameters:
TimeLimit  14400
MIPFocus  2
Symmetry  2
Cuts  3
InfUnbdInfo  1
Presolve  2

Optimize a model with 327 rows, 611 columns and 3266 nonzeros
Model fingerprint: 0xd37fb7fe
Model has 2 quadratic objective terms
Model has 5 quadratic constraints
Variable types: 34 continuous, 577 integer (0 binary)
Coefficient statistics:
  Matrix range     [1e+00, 1e+05]
  QMatrix range    [1e+00, 1e+00]
  QLMatrix range   [1e+00, 1e+01]
  Objective range  [3e+00, 1e+02]
  QObjective range [2e+00, 2e+00]
  Bounds range     [1e+00, 1e+02]
  RHS range        [1e+00, 1e+05]
  QRHS range       [1e+02, 1e+02]
Presolve removed 29 rows and 60 columns
Presolve time: 0.05s
Presolved: 668 rows, 913 columns, 5095 nonzeros
Variable types: 89 continuous, 824 integer (673 binary)
Found heuristic solution: objective 524.7900000
Root relaxation presolve removed 16 rows and 2 columns
Root relaxation presolved: 502 rows, 763 columns, 7141 nonzeros


Root relaxation: objective 8.095254e+01, 83 iterations, 0.01 seconds (0.01 work units)

    Nodes    |    Current Node    |     Objective Bounds      |     Work
 Expl Unexpl |  Obj  Depth IntInf | Incumbent    BestBd   Gap | It/Node Time

     0     0   80.95254    0   30  524.79000   80.95254  84.6%     -    0s
H    0     0                     524.1000000   80.95254  84.6%     -    0s
H    0     0                     517.3900000   80.95254  84.4%     -    0s
     0     0  133.40037    0   56  517.39000  133.40037  74.2%     -    0s
H    0     0                     501.1800000  133.40037  73.4%     -    0s
H    0     0                     345.1100000  133.40037  61.3%     -    0s
H    0     0                     345.0600000  133.40037  61.3%     -    0s
     0     0  133.40037    0   42  345.06000  133.40037  61.3%     -    0s
     0     0  133.95000    0   38  345.06000  133.95000  61.2%     -    0s
     0     0  134.28500    0   35  345.06000  134.28500  61.1%     -    0s
     0     0  137.97000    0   25  345.06000  137.97000  60.0%     -    0s
     0     0  137.97000    0   25  345.06000  137.97000  60.0%     -    0s
H    0     0                     332.1200000  140.77229  57.6%     -    0s
     0     0  140.77229    0   20  332.12000  140.77229  57.6%     -    0s
     0     0  147.10860    0   74  332.12000  147.10860  55.7%     -    0s
     0     0  147.24487    0   74  332.12000  147.24487  55.7%     -    0s
     0     0  149.26431    0   74  332.12000  149.26431  55.1%     -    0s
     0     0  151.47922    0   74  332.12000  151.47922  54.4%     -    0s
     0     0  151.49293    0   74  332.12000  151.49293  54.4%     -    0s
     0     2  151.49293    0   74  332.12000  151.49293  54.4%     -    0s
H   26    63                     329.6400000  151.49293  54.0%  28.5    0s
H   46    63                     311.5300000  151.49293  51.4%  23.5    0s
H 1076   692                     310.3000000  151.49293  51.2%   7.7    0s
H 1484   778                     295.6700000  159.79142  46.0%   8.3    0s
H 1572   743                     283.8200000  168.61395  40.6%   8.6    0s
* 3878  1098              16     279.4600000  200.64590  28.2%  10.1    0s
* 4946  1182              15     278.7700000  215.90380  22.6%  10.6    1s

Cutting planes:
  Learned: 4
  Gomory: 15
  Lift-and-project: 4
  Cover: 13
  Implied bound: 29
  Projected implied bound: 1
  Clique: 21
  MIR: 42
  Mixing: 8
  StrongCG: 18
  Flow cover: 129
  GUB cover: 2
  Inf proof: 3
  Zero half: 34
  RLT: 4
  Relax-and-lift: 4

Explored 15025 nodes (186525 simplex iterations) in 4.15 seconds (4.05 work units)
Thread count was 16 (of 16 available processors)

Solution count 10: 278.77 279.46 283.82 ... 345.11

Optimal solution found (tolerance 1.00e-04)
Best objective 2.787700000000e+02, best bound 2.787700000000e+02, gap 0.0000%

AMPL MP initial flat model has 611 variables (0 integer, 577 binary);
Objectives: 1 quadratic; 
Constraints:  327 linear; 5 quadratic;

AMPL MP final model has 611 variables (0 integer, 577 binary);
Objectives: 1 quadratic; 
Constraints:  327 linear; 5 quadratic;


-----RESULTS INFO-----
running_time:  4.219
TC.best_bound:  278.77
TC:  278.77
MIP Gap (%):  0
=== Vehicle Routes ===
Vehicle 1: 0 → 2
Vehicle 1: 1 → 17
Vehicle 1: 2 → 15
Vehicle 1: 3 → 1
Vehicle 1: 13 → 3
Vehicle 1: 15 → 13
Vehicle 2: 0 → 14
Vehicle 2: 14 → 17
Vehicle 3: 0 → 17

=== Full Vehicle Routes ===
Vehicle 1: 0 → 2 → 15 → 13 → 3 → 1 → 0 (89<100)
Vehicle 2: 0 → 14 → 0 (12<100)
Vehicle 3: 0 → 0 (0<100)
Arc used by MRT line: y variables:
Customer assigment to PL: u variables:
4 13
5 15
6 14
7 13
8 15
9 15
Node is served by regular vehicle: g variables:
1
2
3
13
14
15
Customer assigment to Home delivery: gm variables:
1
2
3
Node total demands: ntd variables:
1 13 1
2 13 1
3 12 1
7 0 0
8 0 0
9 0 0
16 0 0
10 0 0
11 0 0
12 0 0
13 33 1
14 12 1
15 18 1
Customer's demand delivered to PL: l variables:
4
5
6
7
8
9
Lockers load <= capacity:
0 <= 90
0 <= 83
0 <= 100
0 <= 70
33 <= 87
12 <= 73
18 <= 71
